networks/zoo_55_152/zoo_55_152.sol
<?xml version = "1.0" encoding="UTF-8" standalone="yes"?>
<CPLEXSolution version="1.2">
 <header
   problemName="networks/zoo_55_152/zoo_55_152.lp"
   solutionName="incumbent"
   solutionIndex="-1"
   objectiveValue="17"
   solutionTypeValue="3"
   solutionTypeString="primal"
   solutionStatusValue="101"
   solutionStatusString="integer optimal solution"
   solutionMethodString="mip"
   primalFeasible="1"
   dualFeasible="1"
   MIPNodes="0"
   MIPIterations="961"
   writeLevel="3"/>
 <quality
   epInt="1.0000000000000001e-05"
   epRHS="9.9999999999999995e-07"
   maxIntInfeas="0"
   maxPrimalInfeas="0"
   maxX="4"
   maxSlack="10"/>
 <variables>
  <variable name="Y(1,3)" index="2" value="1"/>
  <variable name="Y(4,16)" index="114" value="1"/>
  <variable name="Y(6,18)" index="188" value="1"/>
  <variable name="Y(7,19)" index="225" value="1"/>
  <variable name="Y(12,27)" index="413" value="1"/>
  <variable name="Y(13,1)" index="432" value="1"/>
  <variable name="Y(41,21)" index="1451" value="1"/>
  <variable name="Y(45,17)" index="1591" value="1"/>
  <variable name="Y(57,2)" index="2017" value="1"/>
  <variable name="Y(64,20)" index="2278" value="1"/>
  <variable name="Y(67,23)" index="2389" value="1"/>
  <variable name="Y(82,25)" index="2931" value="1"/>
  <variable name="Y(91,22)" index="3252" value="1"/>
  <variable name="Y(106,26)" index="3796" value="1"/>
  <variable name="Y(121,4)" index="4323" value="1"/>
  <variable name="Y(136,24)" index="4874" value="1"/>
  <variable name="Y(147,12)" index="5260" value="1"/>
  <variable name="X(1,21,12)" index="5483" value="1"/>
  <variable name="X(1,29,13)" index="5636" value="1"/>
  <variable name="X(2,21,13)" index="5788" value="1"/>
  <variable name="X(2,30,57)" index="5984" value="1"/>
  <variable name="X(3,4,147)" index="6226" value="1"/>
  <variable name="X(3,31,1)" index="6232" value="1"/>
  <variable name="X(4,3,1)" index="6384" value="1"/>
  <variable name="X(4,12,147)" index="6682" value="1"/>
  <variable name="X(4,22,41)" index="6728" value="1"/>
  <variable name="X(4,32,121)" index="6960" value="1"/>
  <variable name="X(12,4,41)" index="7032" value="1"/>
  <variable name="X(12,40,147)" index="7290" value="1"/>
  <variable name="X(15,16,45)" index="7340" value="1"/>
  <variable name="X(16,17,45)" index="7492" value="1"/>
  <variable name="X(16,44,4)" index="7603" value="1"/>
  <variable name="X(17,16,4)" index="7755" value="1"/>
  <variable name="X(17,21,57)" index="7960" value="1"/>
  <variable name="X(17,45,45)" index="8100" value="1"/>
  <variable name="X(18,25,82)" index="8289" value="1"/>
  <variable name="X(18,46,6)" index="8365" value="1"/>
  <variable name="X(19,20,64)" index="8575" value="1"/>
  <variable name="X(19,27,91)" index="8754" value="1"/>
  <variable name="X(19,47,7)" index="8822" value="1"/>
  <variable name="X(20,19,91)" index="9058" value="1"/>
  <variable name="X(20,48,64)" index="9183" value="1"/>
  <variable name="X(21,1,13)" index="9284" value="1"/>
  <variable name="X(21,2,57)" index="9480" value="1"/>
  <variable name="X(21,17,4)" index="9579" value="1"/>
  <variable name="X(21,22,12)" index="9739" value="1"/>
  <variable name="X(21,49,41)" index="9920" value="1"/>
  <variable name="X(22,4,121)" index="10152" value="1"/>
  <variable name="X(22,21,41)" index="10224" value="1"/>
  <variable name="X(22,23,67)" index="10402" value="1"/>
  <variable name="X(22,24,136)" index="10623" value="1"/>
  <variable name="X(22,25,6)" index="10645" value="1"/>
  <variable name="X(22,26,12)" index="10803" value="1"/>
  <variable name="X(22,50,91)" index="11034" value="1"/>
  <variable name="X(23,51,67)" index="11162" value="1"/>
  <variable name="X(24,22,121)" index="11368" value="1"/>
  <variable name="X(24,52,136)" index="11535" value="1"/>
  <variable name="X(25,18,6)" index="11557" value="1"/>
  <variable name="X(25,22,136)" index="11839" value="1"/>
  <variable name="X(25,53,82)" index="11937" value="1"/>
  <variable name="X(26,22,91)" index="12098" value="1"/>
  <variable name="X(26,27,12)" index="12171" value="1"/>
  <variable name="X(26,54,106)" index="12417" value="1"/>
  <variable name="X(27,19,7)" index="12470" value="1"/>
  <variable name="X(27,26,91)" index="12706" value="1"/>
  <variable name="X(27,55,12)" index="12779" value="1"/>
  <variable name="X(28,3,147)" index="13066" value="1"/>
  <variable name="C(1,3)" index="13076" value="1"/>
  <variable name="C(4,17)" index="13088" value="1"/>
  <variable name="C(4,16)" index="13089" value="2"/>
  <variable name="C(6,25)" index="13096" value="1"/>
  <variable name="C(6,18)" index="13097" value="2"/>
  <variable name="C(7,19)" index="13103" value="1"/>
  <variable name="C(12,21)" index="13118" value="1"/>
  <variable name="C(12,22)" index="13119" value="2"/>
  <variable name="C(12,26)" index="13120" value="3"/>
  <variable name="C(12,27)" index="13121" value="4"/>
  <variable name="C(13,21)" index="13123" value="1"/>
  <variable name="C(13,1)" index="13124" value="2"/>
  <variable name="C(41,4)" index="13231" value="1"/>
  <variable name="C(41,22)" index="13232" value="2"/>
  <variable name="C(41,21)" index="13233" value="3"/>
  <variable name="C(45,16)" index="13249" value="1"/>
  <variable name="C(45,17)" index="13250" value="2"/>
  <variable name="C(57,21)" index="13299" value="1"/>
  <variable name="C(57,2)" index="13300" value="2"/>
  <variable name="C(64,20)" index="13334" value="1"/>
  <variable name="C(67,23)" index="13343" value="1"/>
  <variable name="C(82,25)" index="13409" value="1"/>
  <variable name="C(91,19)" index="13455" value="1"/>
  <variable name="C(91,27)" index="13456" value="2"/>
  <variable name="C(91,26)" index="13457" value="3"/>
  <variable name="C(91,22)" index="13458" value="4"/>
  <variable name="C(121,22)" index="13551" value="1"/>
  <variable name="C(121,4)" index="13552" value="2"/>
  <variable name="C(136,22)" index="13602" value="1"/>
  <variable name="C(136,24)" index="13603" value="2"/>
  <variable name="C(147,3)" index="13641" value="1"/>
  <variable name="C(147,4)" index="13642" value="2"/>
  <variable name="C(147,12)" index="13643" value="3"/>
 </variables>
</CPLEXSolution>
